30
62 2 
29 5 
91 67 
44 65 
79 10 
9 99 
14 25 
47 51 
0 69 
24 68 
96 67 
31 31 
15 43 
33 10 
36 15 
13 98 
69 42 
3 60 
61 0 
78 92 
10 39 
91 76 
65 90 
27 17 
59 3 
37 8 
71 20 
91 38 
63 24 
48 0 
